projected/problems_b25_r0_d7_m100_s666/_DIMACS/b25_d7_r0_s666_025.cnf
p cnf 321 635 25
c p show 1 2 3 4 5 6 7 8 9 10 11 12 13 14 15 16 17 18 19 20 21 22 23 24 25
-26 -15 0
-26 5 0
-27 5 0
-27 15 0
-28 27 0
-28 26 0
-29 21 20 0
-30 6 0
-30 14 0
-31 30 29 0
-32 31 28 0
-33 3 12 0
-34 25 0
-34 14 0
-35 34 33 0
-36 -16 0
-36 11 0
-37 -18 -13 0
-38 13 18 0
-39 38 0
-39 37 0
-40 39 0
-40 36 0
-41 40 35 0
-42 41 32 0
-43 5 -1 0
-44 22 0
-44 -22 0
-45 44 43 0
-46 -20 0
-46 -23 0
-47 19 0
-47 12 0
-48 47 46 0
-49 48 0
-49 45 0
-50 -25 0
-50 15 0
-51 -19 17 0
-52 51 50 0
-53 -15 0
-54 -15 0
-54 -9 0
-55 54 0
-55 53 0
-56 55 0
-56 52 0
-57 56 49 0
-58 57 0
-58 42 0
-59 -23 0
-59 14 0
-60 47 59 0
-61 -19 -12 0
-62 23 -14 0
-63 62 61 0
-64 63 0
-64 60 0
-65 2 25 0
-66 16 0
-66 1 0
-67 66 65 0
-68 67 0
-68 64 0
-69 -2 0
-69 -25 0
-70 -16 -1 0
-71 70 0
-71 69 0
-72 61 0
-72 62 0
-73 59 0
-73 47 0
-74 73 72 0
-75 74 0
-75 71 0
-76 75 68 0
-77 -24 0
-77 -4 0
-78 12 16 0
-79 78 0
-79 77 0
-80 19 -7 0
-81 6 -9 0
-82 81 80 0
-83 82 79 0
-84 83 76 0
-85 21 0
-85 4 0
-86 -14 0
-86 25 0
-87 86 85 0
-88 -23 7 0
-89 9 0
-89 5 0
-90 89 88 0
-91 90 87 0
-92 16 0
-92 11 0
-93 -6 0
-93 21 0
-94 93 0
-94 92 0
-95 21 4 0
-96 20 0
-96 -14 0
-97 96 95 0
-98 97 0
-98 94 0
-99 98 91 0
-100 99 84 0
-101 100 0
-101 58 0
-102 19 -10 0
-103 -22 0
-103 -18 0
-104 18 0
-104 22 0
-105 104 103 0
-106 105 102 0
-107 -7 13 0
-108 21 0
-108 5 0
-109 108 0
-109 107 0
-110 109 106 0
-111 -7 9 0
-112 23 -3 0
-113 3 -23 0
-114 113 0
-114 112 0
-115 114 0
-115 111 0
-116 14 0
-116 -6 0
-117 1 -21 0
-118 117 0
-118 116 0
-119 118 115 0
-120 119 0
-120 110 0
-121 9 -19 0
-122 6 0
-122 3 0
-123 122 0
-123 121 0
-124 -14 0
-124 24 0
-125 -2 0
-125 -14 0
-126 125 0
-126 124 0
-127 126 0
-127 123 0
-128 -4 -14 0
-129 8 0
-129 11 0
-130 129 0
-130 128 0
-131 -8 -11 0
-132 4 0
-132 14 0
-133 132 0
-133 131 0
-134 133 130 0
-135 -21 0
-135 -9 0
-136 9 0
-136 21 0
-137 136 135 0
-138 18 0
-138 -14 0
-139 138 137 0
-140 139 0
-140 134 0
-141 140 0
-141 127 0
-142 131 132 0
-143 128 129 0
-144 143 0
-144 142 0
-145 21 9 0
-146 -9 -21 0
-147 146 0
-147 145 0
-148 -18 14 0
-149 148 0
-149 147 0
-150 149 144 0
-151 -9 0
-151 19 0
-152 -6 -3 0
-153 152 151 0
-154 14 -24 0
-155 2 14 0
-156 155 154 0
-157 156 153 0
-158 157 0
-158 150 0
-159 158 141 0
-160 159 120 0
-161 20 0
-161 -4 0
-162 9 0
-162 -23 0
-163 162 0
-163 161 0
-164 21 -11 0
-165 14 0
-165 -20 0
-166 96 165 0
-167 166 0
-167 164 0
-168 167 163 0
-169 6 17 0
-170 24 0
-171 -24 0
-172 171 0
-172 170 0
-173 172 169 0
-174 11 3 0
-175 174 0
-175 165 0
-176 175 173 0
-177 -14 20 0
-178 -11 0
-178 -3 0
-179 178 177 0
-180 -6 0
-180 -17 0
-181 -24 0
-182 24 0
-183 182 181 0
-184 183 0
-184 180 0
-185 184 179 0
-186 185 0
-186 176 0
-187 186 168 0
-188 -21 2 0
-189 23 17 0
-190 189 0
-190 188 0
-191 6 0
-191 -20 0
-192 2 -19 0
-193 192 0
-193 191 0
-194 193 190 0
-195 -9 0
-195 20 0
-196 14 0
-197 196 0
-197 195 0
-198 3 0
-198 -20 0
-199 -8 0
-199 -15 0
-200 15 0
-200 8 0
-201 200 199 0
-202 201 0
-202 198 0
-203 202 0
-203 197 0
-204 203 0
-204 194 0
-205 204 0
-205 187 0
-206 205 0
-206 160 0
-207 206 101 0
-208 -19 0
-208 10 0
-209 22 18 0
-210 -18 -22 0
-211 210 0
-211 209 0
-212 211 0
-212 208 0
-213 7 0
-213 -13 0
-214 -21 -5 0
-215 214 213 0
-216 215 0
-216 212 0
-217 7 0
-217 -9 0
-218 -23 0
-218 3 0
-219 -3 0
-219 23 0
-220 219 218 0
-221 220 217 0
-222 -14 6 0
-223 -1 0
-223 21 0
-224 223 222 0
-225 224 0
-225 221 0
-226 225 216 0
-227 150 157 0
-228 127 140 0
-229 228 0
-229 227 0
-230 229 0
-230 226 0
-231 -20 4 0
-232 -9 23 0
-233 232 231 0
-234 -21 0
-234 11 0
-235 -20 14 0
-236 235 0
-236 177 0
-237 236 234 0
-238 237 0
-238 233 0
-239 179 0
-239 184 0
-240 173 0
-240 175 0
-241 240 239 0
-242 241 0
-242 238 0
-243 21 0
-243 -2 0
-244 -23 0
-244 -17 0
-245 244 243 0
-246 -6 20 0
-247 -2 0
-247 19 0
-248 247 246 0
-249 248 0
-249 245 0
-250 9 -20 0
-251 -14 0
-252 251 250 0
-253 -3 20 0
-254 8 15 0
-255 -15 -8 0
-256 255 0
-256 254 0
-257 256 253 0
-258 257 252 0
-259 258 249 0
-260 259 242 0
-261 260 230 0
-262 15 -5 0
-263 -5 -15 0
-264 263 262 0
-265 -21 0
-265 -20 0
-266 -6 -14 0
-267 266 0
-267 265 0
-268 267 0
-268 264 0
-269 -3 0
-269 -12 0
-270 -25 -14 0
-271 270 0
-271 269 0
-272 16 -11 0
-273 18 0
-273 13 0
-274 -13 0
-274 -18 0
-275 274 273 0
-276 275 272 0
-277 276 0
-277 271 0
-278 277 0
-278 268 0
-279 -5 0
-279 1 0
-280 -22 22 0
-281 280 0
-281 279 0
-282 20 23 0
-283 61 0
-283 282 0
-284 283 281 0
-285 25 -15 0
-286 19 0
-286 -17 0
-287 286 0
-287 285 0
-288 15 0
-289 15 9 0
-290 289 288 0
-291 290 287 0
-292 291 0
-292 284 0
-293 292 278 0
-294 71 74 0
-295 64 67 0
-296 295 0
-296 294 0
-297 24 4 0
-298 -12 0
-298 -16 0
-299 298 297 0
-300 -19 0
-300 7 0
-301 -6 0
-301 9 0
-302 301 0
-302 300 0
-303 302 0
-303 299 0
-304 303 0
-304 296 0
-305 -21 -4 0
-306 14 -25 0
-307 306 0
-307 305 0
-308 23 0
-308 -7 0
-309 -9 -5 0
-310 309 0
-310 308 0
-311 310 0
-311 307 0
-312 -16 -11 0
-313 6 -21 0
-314 313 312 0
-315 -21 0
-315 -4 0
-316 235 0
-316 315 0
-317 316 314 0
-318 317 0
-318 311 0
-319 318 0
-319 304 0
-320 319 293 0
-321 320 261 0
321 0
207 0
-208 -102 0
-102 -208 0
-211 -105 0
-105 -211 0
-106 -212 0
-213 -107 0
-107 -213 0
-214 -108 0
-108 -214 0
-109 -215 0
-110 -216 0
-216 -110 0
-111 -217 0
-217 -111 0
-114 -220 0
-220 -114 0
-221 -115 0
-116 -222 0
-117 -223 0
-118 -224 0
-224 -118 0
-225 -119 0
-226 -120 0
-120 -226 0
-131 -129 0
-129 -131 0
-128 -132 0
-132 -128 0
-144 -134 0
-147 -137 0
-137 -147 0
-148 -138 0
-138 -148 0
-139 -149 0
-149 -139 0
-150 -140 0
-140 -150 0
-151 -121 0
-152 -122 0
-153 -123 0
-123 -153 0
-154 -124 0
-124 -154 0
-125 -155 0
-126 -156 0
-127 -157 0
-157 -127 0
-229 -159 0
-159 -229 0
-160 -230 0
-230 -160 0
-231 -161 0
-161 -231 0
-162 -232 0
-163 -233 0
-233 -163 0
-234 -164 0
-236 -166 0
-237 -167 0
-238 -168 0
-177 -165 0
-165 -177 0
-178 -174 0
-174 -178 0
-175 -179 0
-179 -175 0
-180 -169 0
-169 -180 0
-172 -183 0
-173 -184 0
-186 -241 0
-241 -186 0
-242 -187 0
-243 -188 0
-244 -189 0
-245 -190 0
-190 -245 0
-191 -246 0
-247 -192 0
-192 -247 0
-193 -248 0
-194 -249 0
-250 -195 0
-195 -250 0
-251 -196 0
-196 -251 0
-197 -252 0
-252 -197 0
-198 -253 0
-253 -198 0
-256 -201 0
-257 -202 0
-258 -203 0
-203 -258 0
-204 -259 0
-259 -204 0
-260 -205 0
-261 -206 0
-262 -26 0
-263 -27 0
-264 -28 0
-29 -265 0
-266 -30 0
-30 -266 0
-31 -267 0
-267 -31 0
-268 -32 0
-269 -33 0
-33 -269 0
-34 -270 0
-35 -271 0
-36 -272 0
-272 -36 0
-39 -275 0
-275 -39 0
-276 -40 0
-40 -276 0
-41 -277 0
-277 -41 0
-278 -42 0
-279 -43 0
-43 -279 0
-280 -44 0
-44 -280 0
-45 -281 0
-46 -282 0
-282 -46 0
-47 -61 0
-61 -47 0
-283 -48 0
-48 -283 0
-49 -284 0
-50 -285 0
-285 -50 0
-51 -286 0
-286 -51 0
-287 -52 0
-52 -287 0
-288 -53 0
-53 -288 0
-54 -289 0
-55 -290 0
-56 -291 0
-57 -292 0
-292 -57 0
-293 -58 0
-69 -65 0
-65 -69 0
-70 -66 0
-66 -70 0
-67 -71 0
-62 -59 0
-59 -62 0
-64 -74 0
-74 -64 0
-296 -76 0
-76 -296 0
-77 -297 0
-297 -77 0
-298 -78 0
-299 -79 0
-300 -80 0
-81 -301 0
-301 -81 0
-302 -82 0
-303 -83 0
-83 -303 0
-84 -304 0
-85 -305 0
-305 -85 0
-306 -86 0
-307 -87 0
-88 -308 0
-309 -89 0
-89 -309 0
-90 -310 0
-310 -90 0
-311 -91 0
-91 -311 0
-312 -92 0
-93 -313 0
-313 -93 0
-314 -94 0
-95 -315 0
-96 -235 0
-97 -316 0
-316 -97 0
-317 -98 0
-98 -317 0
-99 -318 0
-100 -319 0
-319 -100 0
-320 -101 0
-101 -320 0
