projected/problems_b25_r0_d7_m100_s666/b25_d7_r0_s666_025.smt2
(set-logic QF_UF)
(declare-fun A0 () Bool)
(declare-fun A1 () Bool)
(declare-fun A2 () Bool)
(declare-fun A3 () Bool)
(declare-fun A4 () Bool)
(declare-fun A5 () Bool)
(declare-fun A6 () Bool)
(declare-fun A7 () Bool)
(declare-fun A8 () Bool)
(declare-fun A9 () Bool)
(declare-fun A10 () Bool)
(declare-fun A11 () Bool)
(declare-fun A12 () Bool)
(declare-fun A13 () Bool)
(declare-fun A14 () Bool)
(declare-fun A15 () Bool)
(declare-fun A16 () Bool)
(declare-fun A17 () Bool)
(declare-fun A18 () Bool)
(declare-fun A19 () Bool)
(declare-fun A20 () Bool)
(declare-fun A21 () Bool)
(declare-fun A22 () Bool)
(declare-fun A23 () Bool)
(declare-fun A24 () Bool)
(assert (let ((.def_0 (not A18))) (let ((.def_1 (and .def_0 A9))) (let ((.def_2 (not .def_1))) (let ((.def_3 (not A21))) (let ((.def_4 (= A17 .def_3))) (let ((.def_5 (not .def_4))) (let ((.def_6 (or .def_5 .def_2))) (let ((.def_7 (not A12))) (let ((.def_8 (and A6 .def_7))) (let ((.def_9 (not .def_8))) (let ((.def_10 (not A4))) (let ((.def_11 (not A20))) (let ((.def_12 (or .def_11 .def_10))) (let ((.def_13 (not .def_12))) (let ((.def_14 (and .def_13 .def_9))) (let ((.def_15 (or .def_14 .def_6))) (let ((.def_16 (not .def_15))) (let ((.def_17 (not A6))) (let ((.def_18 (or .def_17 A8))) (let ((.def_19 (not .def_18))) (let ((.def_20 (not A22))) (let ((.def_21 (not A2))) (let ((.def_22 (= .def_21 .def_20))) (let ((.def_23 (not .def_22))) (let ((.def_24 (or .def_23 .def_19))) (let ((.def_25 (not A5))) (let ((.def_26 (and A13 .def_25))) (let ((.def_27 (or A0 .def_11))) (let ((.def_28 (and .def_27 .def_26))) (let ((.def_29 (not .def_28))) (let ((.def_30 (and .def_29 .def_24))) (let ((.def_31 (or .def_30 .def_16))) (let ((.def_32 (not .def_31))) (let ((.def_33 (not A10))) (let ((.def_34 (not A7))) (let ((.def_35 (or .def_34 .def_33))) (let ((.def_36 (not .def_35))) (let ((.def_37 (not A13))) (let ((.def_38 (not A3))) (let ((.def_39 (or .def_38 .def_37))) (let ((.def_40 (not .def_39))) (let ((.def_41 (= .def_40 .def_36))) (let ((.def_42 (= A8 .def_11))) (let ((.def_43 (not .def_42))) (let ((.def_44 (not A17))) (let ((.def_45 (or .def_44 A13))) (let ((.def_46 (not .def_45))) (let ((.def_47 (or .def_46 .def_43))) (let ((.def_48 (not .def_47))) (let ((.def_49 (or .def_48 .def_41))) (let ((.def_50 (not .def_49))) (let ((.def_51 (not A8))) (let ((.def_52 (and .def_51 A18))) (let ((.def_53 (or .def_25 .def_21))) (let ((.def_54 (or .def_53 .def_52))) (let ((.def_55 (not .def_54))) (let ((.def_56 (not A23))) (let ((.def_57 (or A13 .def_56))) (let ((.def_58 (not .def_57))) (let ((.def_59 (not A1))) (let ((.def_60 (and .def_59 .def_37))) (let ((.def_61 (and .def_60 .def_58))) (let ((.def_62 (and .def_61 .def_55))) (let ((.def_63 (not .def_62))) (let ((.def_64 (= .def_63 .def_50))) (let ((.def_65 (not .def_64))) (let ((.def_66 (or .def_65 .def_32))) (let ((.def_67 (not .def_66))) (let ((.def_68 (not A19))) (let ((.def_69 (or .def_68 A3))) (let ((.def_70 (not .def_69))) (let ((.def_71 (and A8 .def_20))) (let ((.def_72 (and .def_71 .def_70))) (let ((.def_73 (not .def_72))) (let ((.def_74 (and .def_11 A10))) (let ((.def_75 (= A19 A13))) (let ((.def_76 (or .def_75 .def_74))) (let ((.def_77 (and .def_76 .def_73))) (let ((.def_78 (or .def_37 A19))) (let ((.def_79 (not .def_78))) (let ((.def_80 (and .def_33 .def_21))) (let ((.def_81 (not .def_80))) (let ((.def_82 (and .def_81 .def_79))) (let ((.def_83 (not .def_82))) (let ((.def_84 (not A16))) (let ((.def_85 (and .def_25 .def_84))) (let ((.def_86 (not .def_85))) (let ((.def_87 (= A23 .def_56))) (let ((.def_88 (or .def_87 .def_86))) (let ((.def_89 (= .def_88 .def_83))) (let ((.def_90 (not .def_89))) (let ((.def_91 (and .def_90 .def_77))) (let ((.def_92 (and A20 .def_59))) (let ((.def_93 (and .def_20 .def_84))) (let ((.def_94 (or .def_93 .def_92))) (let ((.def_95 (not .def_94))) (let ((.def_96 (and A5 .def_68))) (let ((.def_97 (and .def_59 A18))) (let ((.def_98 (not .def_97))) (let ((.def_99 (and .def_98 .def_96))) (let ((.def_100 (or .def_99 .def_95))) (let ((.def_101 (or A8 .def_68))) (let ((.def_102 (not .def_101))) (let ((.def_103 (and .def_37 .def_37))) (let ((.def_104 (not .def_103))) (let ((.def_105 (and .def_104 .def_102))) (let ((.def_106 (not .def_105))) (let ((.def_107 (and A2 .def_68))) (let ((.def_108 (not .def_107))) (let ((.def_109 (= A14 .def_34))) (let ((.def_110 (or .def_109 .def_108))) (let ((.def_111 (or .def_110 .def_106))) (let ((.def_112 (not .def_111))) (let ((.def_113 (and .def_112 .def_100))) (let ((.def_114 (not .def_113))) (let ((.def_115 (or .def_114 .def_91))) (let ((.def_116 (or .def_115 .def_67))) (let ((.def_117 (or A14 .def_10))) (let ((.def_118 (not A14))) (let ((.def_119 (or .def_10 .def_118))) (let ((.def_120 (or .def_119 .def_117))) (let ((.def_121 (or A20 A19))) (let ((.def_122 (or .def_25 .def_37))) (let ((.def_123 (not .def_122))) (let ((.def_124 (or .def_123 .def_121))) (let ((.def_125 (not .def_124))) (let ((.def_126 (and .def_125 .def_120))) (let ((.def_127 (not A11))) (let ((.def_128 (and .def_21 .def_127))) (let ((.def_129 (not .def_128))) (let ((.def_130 (and A24 A13))) (let ((.def_131 (or .def_130 .def_129))) (let ((.def_132 (not A15))) (let ((.def_133 (and .def_132 A10))) (let ((.def_134 (not .def_133))) (let ((.def_135 (= .def_7 A17))) (let ((.def_136 (not .def_135))) (let ((.def_137 (or .def_136 .def_134))) (let ((.def_138 (not .def_137))) (let ((.def_139 (or .def_138 .def_131))) (let ((.def_140 (not .def_139))) (let ((.def_141 (and .def_140 .def_126))) (let ((.def_142 (and .def_10 A0))) (let ((.def_143 (not .def_142))) (let ((.def_144 (or .def_3 A21))) (let ((.def_145 (not .def_144))) (let ((.def_146 (or .def_145 .def_143))) (let ((.def_147 (and .def_68 .def_20))) (let ((.def_148 (not .def_147))) (let ((.def_149 (and A18 A11))) (let ((.def_150 (not .def_149))) (let ((.def_151 (and .def_150 .def_148))) (let ((.def_152 (not .def_151))) (let ((.def_153 (and .def_152 .def_146))) (let ((.def_154 (not A24))) (let ((.def_155 (and .def_154 A14))) (let ((.def_156 (not .def_155))) (let ((.def_157 (or .def_0 A16))) (let ((.def_158 (not .def_157))) (let ((.def_159 (and .def_158 .def_156))) (let ((.def_160 (not .def_159))) (let ((.def_161 (or A14 A14))) (let ((.def_162 (not .def_161))) (let ((.def_163 (and .def_118 .def_51))) (let ((.def_164 (and .def_163 .def_162))) (let ((.def_165 (and .def_164 .def_160))) (let ((.def_166 (or .def_165 .def_153))) (let ((.def_167 (not .def_166))) (let ((.def_168 (or .def_167 .def_141))) (let ((.def_169 (and .def_59 .def_154))) (let ((.def_170 (not .def_169))) (let ((.def_171 (not A0))) (let ((.def_172 (or .def_132 .def_171))) (let ((.def_173 (not .def_172))) (let ((.def_174 (or .def_173 .def_170))) (let ((.def_175 (or A22 .def_37))) (let ((.def_176 (not .def_175))) (let ((.def_177 (= .def_176 .def_150))) (let ((.def_178 (not .def_177))) (let ((.def_179 (= .def_178 .def_174))) (let ((.def_180 (not .def_179))) (let ((.def_181 (and .def_56 .def_38))) (let ((.def_182 (not .def_181))) (let ((.def_183 (and .def_127 .def_132))) (let ((.def_184 (or .def_183 .def_182))) (let ((.def_185 (and .def_0 A6))) (let ((.def_186 (or A5 .def_51))) (let ((.def_187 (not .def_186))) (let ((.def_188 (and .def_187 .def_185))) (let ((.def_189 (and .def_188 .def_184))) (let ((.def_190 (not .def_189))) (let ((.def_191 (or .def_190 .def_180))) (let ((.def_192 (and A20 A3))) (let ((.def_193 (not .def_192))) (let ((.def_194 (or A13 .def_154))) (let ((.def_195 (and .def_194 .def_193))) (let ((.def_196 (or .def_20 A6))) (let ((.def_197 (or .def_51 .def_10))) (let ((.def_198 (not .def_197))) (let ((.def_199 (or .def_198 .def_196))) (let ((.def_200 (not .def_199))) (let ((.def_201 (and .def_200 .def_195))) (let ((.def_202 (not .def_201))) (let ((.def_203 (or .def_132 .def_33))) (let ((.def_204 (and .def_25 A20))) (let ((.def_205 (not .def_204))) (let ((.def_206 (or .def_205 .def_203))) (let ((.def_207 (or A20 A3))) (let ((.def_208 (and A19 .def_37))) (let ((.def_209 (or .def_208 .def_207))) (let ((.def_210 (not .def_209))) (let ((.def_211 (or .def_210 .def_206))) (let ((.def_212 (not .def_211))) (let ((.def_213 (or .def_212 .def_202))) (let ((.def_214 (or .def_213 .def_191))) (let ((.def_215 (not .def_214))) (let ((.def_216 (or .def_215 .def_168))) (let ((.def_217 (not .def_216))) (let ((.def_218 (= .def_217 .def_116))) .def_218))))))))))))))))))))))))))))))))))))))))))))))))))))))))))))))))))))))))))))))))))))))))))))))))))))))))))))))))))))))))))))))))))))))))))))))))))))))))))))))))))))))))))))))))))))))))))))))))))))))))))))))))))))))))))))
(check-sat)
